% File represents an instance of a Composite Structure problem to be solved by a CP framework
% Created on 2025-03-26 10:41:26.193
T = 52;
n = 16;
m = 24;
edges = [(1, 2),
(5, 6),
(9, 10),
(14, 13),
(2, 3),
(6, 7),
(10, 11),
(14, 15),
(3, 4),
(7, 8),
(12, 11),
(16, 15),
(1, 5),
(5, 9),
(9, 13),
(2, 6),
(6, 10),
(14, 10),
(3, 7),
(7, 11),
(15, 11),
(4, 8),
(12, 8),
(16, 12)];
counts = [|12, 20, 12, 8,
|12, 14, 12, 8,
|12, 12, 12, 4,
|12, 10, 12, 2,
|12, 14, 12, 8,
|12, 8, 12, 8,
|12, 8, 12, 4,
|12, 8, 12, 2,
|10, 12, 10, 8,
|10, 8, 10, 8,
|10, 8, 10, 2,
|12, 10, 12, 2,
|10, 10, 10, 8,
|10, 12, 10, 8,
|10, 12, 10, 2,
|12, 12, 12, 2|];
